28
2 4 6 8 10 12 14 16 18 20 22 24 26 28 30 32 34 36 38 40 42 44 46 48 50 52 54 56
10
6
2 4 6 8 10 12
6
14 16 18 20 22 24
6
26 28 30 32 34 36
6
38 40 42 44 46 48
4
50 52 54 56
3
2 14 26
3
16 28 40
3
4 22 36
3
24 46 52
3
6 18 34
5
